networks/zoo_15_45/zoo_15_45.txt
Number of groups: 7
Flow 4: {1 6} {6 7} {7 15} 
Flow 5: {2 6} {6 1} {1 9} 
Flow 25: {5 4} {4 3} {3 6} {6 14} 
Flow 30: {3 4} {4 12} 
Flow 34: {7 6} {6 2} {2 10} 
Flow 37: {4 5} {5 13} 
Flow 41: {8 6} {6 3} {3 11} 
Time taken running everything: 0 seconds
