networks/zoo_15_45/zoo_15_45.sol
<?xml version = "1.0" encoding="UTF-8" standalone="yes"?>
<CPLEXSolution version="1.2">
 <header
   problemName="networks/zoo_15_45/zoo_15_45.lp"
   solutionName="incumbent"
   solutionIndex="-1"
   objectiveValue="7"
   solutionTypeValue="3"
   solutionTypeString="primal"
   solutionStatusValue="101"
   solutionStatusString="integer optimal solution"
   solutionMethodString="mip"
   primalFeasible="1"
   dualFeasible="1"
   MIPNodes="0"
   MIPIterations="99"
   writeLevel="3"/>
 <quality
   epInt="1.0000000000000001e-05"
   epRHS="9.9999999999999995e-07"
   maxIntInfeas="0"
   maxPrimalInfeas="0"
   maxX="3"
   maxSlack="9"/>
 <variables>
  <variable name="Y(4,7)" index="51" value="1"/>
  <variable name="Y(5,1)" index="60" value="1"/>
  <variable name="Y(25,6)" index="365" value="1"/>
  <variable name="Y(30,4)" index="438" value="1"/>
  <variable name="Y(34,2)" index="496" value="1"/>
  <variable name="Y(37,5)" index="544" value="1"/>
  <variable name="Y(41,3)" index="602" value="1"/>
  <variable name="X(1,6,4)" index="678" value="1"/>
  <variable name="X(1,9,5)" index="724" value="1"/>
  <variable name="X(2,6,5)" index="769" value="1"/>
  <variable name="X(2,10,34)" index="843" value="1"/>
  <variable name="X(3,4,30)" index="884" value="1"/>
  <variable name="X(3,6,25)" index="924" value="1"/>
  <variable name="X(3,11,41)" index="985" value="1"/>
  <variable name="X(4,3,25)" index="1014" value="1"/>
  <variable name="X(4,5,37)" index="1071" value="1"/>
  <variable name="X(4,12,30)" index="1109" value="1"/>
  <variable name="X(5,4,25)" index="1149" value="1"/>
  <variable name="X(5,13,37)" index="1206" value="1"/>
  <variable name="X(6,1,5)" index="1219" value="1"/>
  <variable name="X(6,2,34)" index="1293" value="1"/>
  <variable name="X(6,3,41)" index="1345" value="1"/>
  <variable name="X(6,7,4)" index="1353" value="1"/>
  <variable name="X(6,14,25)" index="1419" value="1"/>
  <variable name="X(7,6,34)" index="1473" value="1"/>
  <variable name="X(7,15,4)" index="1488" value="1"/>
  <variable name="X(8,6,41)" index="1570" value="1"/>
  <variable name="C(4,6)" index="1585" value="1"/>
  <variable name="C(4,7)" index="1586" value="2"/>
  <variable name="C(5,6)" index="1588" value="1"/>
  <variable name="C(5,1)" index="1589" value="2"/>
  <variable name="C(25,4)" index="1651" value="1"/>
  <variable name="C(25,3)" index="1652" value="2"/>
  <variable name="C(25,6)" index="1653" value="3"/>
  <variable name="C(30,4)" index="1667" value="1"/>
  <variable name="C(34,6)" index="1678" value="1"/>
  <variable name="C(34,2)" index="1679" value="2"/>
  <variable name="C(37,5)" index="1691" value="1"/>
  <variable name="C(41,6)" index="1701" value="1"/>
  <variable name="C(41,3)" index="1702" value="2"/>
 </variables>
</CPLEXSolution>
